c File: data_files/evolved_graphs/g3697.col
c
c Auto generated graph
c
p edge 100 1182
e 1 8
e 1 23
e 1 30
e 1 31
e 1 35
e 1 38
e 1 41
e 1 45
e 1 49
e 1 50
e 1 51
e 1 52
e 1 54
e 1 56
e 1 65
e 1 66
e 1 72
e 1 95
e 2 3
e 2 5
e 2 7
e 2 9
e 2 11
e 2 19
e 2 23
e 2 27
e 2 28
e 2 31
e 2 38
e 2 39
e 2 40
e 2 44
e 2 46
e 2 48
e 2 49
e 2 50
e 2 58
e 2 59
e 2 73
e 2 74
e 2 81
e 2 84
e 3 7
e 3 11
e 3 12
e 3 16
e 3 17
e 3 22
e 3 27
e 3 36
e 3 37
e 3 41
e 3 45
e 3 48
e 3 50
e 3 64
e 3 65
e 3 91
e 3 100
e 4 5
e 4 9
e 4 17
e 4 31
e 4 36
e 4 41
e 4 44
e 4 53
e 4 57
e 4 71
e 4 94
e 5 17
e 5 23
e 5 33
e 5 37
e 5 40
e 5 43
e 5 44
e 5 45
e 5 46
e 5 49
e 5 61
e 5 80
e 5 95
e 6 8
e 6 32
e 6 36
e 6 37
e 6 43
e 6 51
e 6 54
e 6 60
e 6 66
e 6 68
e 6 69
e 6 80
e 6 94
e 7 9
e 7 14
e 7 20
e 7 21
e 7 24
e 7 25
e 7 27
e 7 31
e 7 32
e 7 37
e 7 38
e 7 43
e 7 49
e 7 52
e 7 53
e 7 81
e 8 20
e 8 28
e 8 31
e 8 33
e 8 38
e 8 41
e 8 44
e 8 47
e 8 48
e 8 49
e 8 54
e 8 58
e 8 60
e 8 62
e 8 64
e 8 65
e 8 66
e 8 67
e 8 68
e 8 71
e 8 72
e 8 74
e 8 75
e 8 77
e 8 79
e 8 83
e 8 87
e 8 88
e 8 89
e 8 93
e 8 94
e 8 99
e 9 11
e 9 15
e 9 18
e 9 34
e 9 35
e 9 37
e 9 49
e 9 53
e 9 54
e 9 57
e 9 61
e 9 63
e 9 65
e 9 68
e 9 69
e 9 71
e 9 72
e 9 74
e 9 83
e 9 86
e 9 87
e 9 88
e 9 90
e 9 92
e 9 95
e 9 96
e 9 97
e 9 99
e 10 15
e 10 32
e 10 33
e 10 36
e 10 39
e 10 41
e 10 44
e 10 49
e 10 50
e 10 51
e 10 52
e 10 55
e 10 57
e 10 58
e 10 64
e 10 65
e 10 66
e 10 67
e 10 69
e 10 71
e 10 73
e 10 75
e 10 79
e 10 81
e 10 83
e 10 85
e 10 88
e 10 89
e 10 91
e 10 92
e 10 95
e 10 98
e 10 100
e 11 13
e 11 18
e 11 22
e 11 27
e 11 38
e 11 39
e 11 42
e 11 44
e 11 49
e 11 50
e 11 54
e 11 56
e 11 59
e 11 60
e 11 63
e 11 64
e 11 65
e 11 66
e 11 68
e 11 69
e 11 70
e 11 79
e 11 80
e 11 82
e 11 84
e 11 85
e 11 89
e 11 92
e 11 94
e 11 95
e 11 97
e 11 98
e 12 16
e 12 18
e 12 21
e 12 24
e 12 25
e 12 39
e 12 43
e 12 44
e 12 49
e 12 53
e 12 54
e 12 58
e 12 61
e 12 62
e 12 65
e 12 67
e 12 69
e 12 70
e 12 74
e 12 75
e 12 76
e 12 82
e 12 83
e 12 84
e 12 86
e 12 88
e 12 91
e 12 93
e 12 96
e 13 21
e 13 29
e 13 36
e 13 40
e 13 41
e 13 47
e 13 48
e 13 53
e 13 57
e 13 60
e 13 61
e 13 63
e 13 64
e 13 65
e 13 69
e 13 73
e 13 83
e 13 86
e 13 92
e 13 94
e 13 96
e 13 97
e 13 98
e 13 99
e 14 15
e 14 18
e 14 30
e 14 39
e 14 41
e 14 45
e 14 46
e 14 50
e 14 53
e 14 54
e 14 57
e 14 59
e 14 60
e 14 65
e 14 66
e 14 69
e 14 73
e 14 77
e 14 78
e 14 85
e 14 90
e 14 91
e 14 93
e 14 94
e 14 95
e 14 97
e 14 98
e 14 99
e 15 36
e 15 38
e 15 41
e 15 42
e 15 45
e 15 46
e 15 50
e 15 51
e 15 53
e 15 58
e 15 63
e 15 64
e 15 66
e 15 67
e 15 73
e 15 76
e 15 77
e 15 81
e 15 83
e 15 86
e 15 87
e 15 96
e 15 97
e 16 22
e 16 32
e 16 35
e 16 36
e 16 45
e 16 46
e 16 49
e 16 55
e 16 56
e 16 61
e 16 64
e 16 69
e 16 72
e 16 73
e 16 74
e 16 75
e 16 80
e 16 81
e 16 85
e 16 86
e 16 87
e 16 88
e 16 89
e 16 93
e 16 94
e 16 95
e 16 97
e 16 98
e 16 100
e 17 24
e 17 34
e 17 38
e 17 39
e 17 40
e 17 42
e 17 43
e 17 44
e 17 46
e 17 47
e 17 48
e 17 56
e 17 57
e 17 60
e 17 62
e 17 65
e 17 66
e 17 67
e 17 71
e 17 73
e 17 76
e 17 78
e 17 79
e 17 80
e 17 81
e 17 85
e 17 88
e 17 89
e 17 96
e 17 97
e 18 22
e 18 24
e 18 27
e 18 29
e 18 30
e 18 31
e 18 45
e 18 48
e 18 55
e 18 57
e 18 62
e 18 63
e 18 64
e 18 73
e 18 74
e 18 75
e 18 80
e 18 84
e 18 85
e 18 88
e 18 93
e 18 94
e 18 98
e 19 22
e 19 23
e 19 24
e 19 26
e 19 27
e 19 41
e 19 44
e 19 45
e 19 50
e 19 52
e 19 56
e 19 57
e 19 59
e 19 61
e 19 67
e 19 78
e 19 81
e 19 85
e 19 89
e 19 92
e 19 94
e 19 96
e 19 98
e 20 22
e 20 23
e 20 31
e 20 34
e 20 37
e 20 40
e 20 46
e 20 49
e 20 50
e 20 52
e 20 53
e 20 58
e 20 59
e 20 61
e 20 64
e 20 66
e 20 67
e 20 71
e 20 75
e 20 77
e 20 78
e 20 79
e 20 80
e 20 81
e 20 83
e 20 84
e 20 85
e 20 88
e 20 92
e 20 94
e 20 97
e 21 27
e 21 28
e 21 29
e 21 31
e 21 36
e 21 37
e 21 39
e 21 41
e 21 44
e 21 47
e 21 50
e 21 56
e 21 61
e 21 62
e 21 63
e 21 65
e 21 66
e 21 70
e 21 74
e 21 81
e 21 82
e 21 85
e 21 89
e 21 90
e 21 94
e 22 28
e 22 29
e 22 39
e 22 40
e 22 43
e 22 47
e 22 48
e 22 49
e 22 51
e 22 52
e 22 56
e 22 60
e 22 61
e 22 63
e 22 64
e 22 65
e 22 66
e 22 68
e 22 70
e 22 71
e 22 76
e 22 78
e 22 86
e 22 91
e 22 92
e 22 97
e 22 98
e 22 99
e 23 24
e 23 28
e 23 32
e 23 36
e 23 37
e 23 39
e 23 40
e 23 45
e 23 47
e 23 50
e 23 53
e 23 54
e 23 62
e 23 64
e 23 65
e 23 76
e 23 78
e 23 80
e 23 82
e 23 84
e 23 85
e 23 87
e 23 90
e 23 91
e 23 95
e 23 100
e 24 32
e 24 35
e 24 36
e 24 46
e 24 47
e 24 49
e 24 54
e 24 55
e 24 57
e 24 60
e 24 61
e 24 62
e 24 63
e 24 64
e 24 71
e 24 74
e 24 75
e 24 81
e 24 82
e 24 85
e 24 88
e 24 89
e 24 90
e 24 93
e 24 94
e 24 97
e 24 98
e 24 100
e 25 30
e 25 33
e 25 37
e 25 39
e 25 44
e 25 46
e 25 50
e 25 51
e 25 53
e 25 55
e 25 58
e 25 60
e 25 61
e 25 66
e 25 67
e 25 68
e 25 69
e 25 73
e 25 77
e 25 78
e 25 80
e 25 86
e 25 91
e 25 93
e 25 97
e 26 28
e 26 32
e 26 37
e 26 40
e 26 44
e 26 45
e 26 54
e 26 56
e 26 60
e 26 61
e 26 63
e 26 68
e 26 69
e 26 73
e 26 86
e 26 87
e 26 94
e 26 96
e 26 97
e 27 28
e 27 33
e 27 35
e 27 40
e 27 43
e 27 49
e 27 54
e 27 55
e 27 58
e 27 59
e 27 60
e 27 71
e 27 73
e 27 74
e 27 75
e 27 77
e 27 79
e 27 84
e 27 87
e 27 88
e 27 89
e 27 91
e 27 93
e 27 94
e 27 95
e 27 96
e 27 100
e 28 38
e 28 44
e 28 45
e 28 46
e 28 51
e 28 53
e 28 58
e 28 64
e 28 74
e 28 80
e 28 82
e 28 87
e 28 90
e 28 92
e 28 94
e 28 98
e 28 99
e 28 100
e 29 30
e 29 32
e 29 39
e 29 40
e 29 49
e 29 55
e 29 56
e 29 58
e 29 59
e 29 60
e 29 61
e 29 63
e 29 65
e 29 66
e 29 69
e 29 77
e 29 78
e 29 79
e 29 88
e 29 92
e 29 97
e 29 98
e 30 33
e 30 41
e 30 43
e 30 47
e 30 51
e 30 52
e 30 53
e 30 57
e 30 60
e 30 62
e 30 64
e 30 65
e 30 77
e 30 78
e 30 95
e 30 97
e 31 38
e 31 46
e 31 47
e 31 55
e 31 62
e 31 65
e 31 67
e 31 68
e 31 77
e 31 82
e 31 85
e 31 86
e 31 87
e 31 88
e 31 93
e 31 95
e 31 96
e 31 98
e 31 99
e 32 34
e 32 39
e 32 43
e 32 45
e 32 51
e 32 55
e 32 57
e 32 59
e 32 60
e 32 62
e 32 65
e 32 69
e 32 71
e 32 72
e 32 81
e 32 87
e 32 92
e 32 95
e 32 96
e 32 97
e 32 100
e 33 37
e 33 39
e 33 53
e 33 55
e 33 62
e 33 66
e 33 71
e 33 76
e 33 77
e 33 86
e 33 91
e 33 92
e 33 96
e 33 97
e 33 100
e 34 36
e 34 41
e 34 44
e 34 47
e 34 52
e 34 57
e 34 64
e 34 66
e 34 68
e 34 69
e 34 71
e 34 73
e 34 75
e 34 78
e 34 79
e 34 84
e 34 85
e 34 87
e 34 90
e 34 93
e 34 97
e 35 36
e 35 37
e 35 44
e 35 46
e 35 52
e 35 55
e 35 56
e 35 57
e 35 63
e 35 66
e 35 68
e 35 69
e 35 77
e 35 83
e 35 84
e 35 86
e 35 90
e 35 92
e 35 93
e 35 94
e 35 95
e 35 99
e 35 100
e 36 44
e 36 53
e 36 65
e 36 66
e 36 67
e 36 72
e 36 85
e 36 86
e 36 87
e 37 52
e 37 56
e 37 68
e 37 77
e 37 82
e 37 83
e 37 88
e 37 91
e 37 94
e 38 39
e 38 41
e 38 43
e 38 45
e 38 47
e 38 49
e 38 50
e 38 53
e 38 61
e 38 72
e 38 76
e 38 78
e 38 82
e 38 93
e 38 94
e 38 95
e 38 98
e 39 41
e 39 50
e 39 56
e 39 59
e 39 60
e 39 61
e 39 66
e 39 70
e 39 71
e 39 87
e 39 89
e 40 57
e 40 64
e 40 73
e 40 74
e 40 77
e 40 80
e 40 81
e 40 85
e 40 86
e 40 89
e 40 93
e 41 43
e 41 44
e 41 47
e 41 48
e 41 50
e 41 53
e 41 55
e 41 62
e 41 68
e 41 79
e 41 82
e 41 88
e 41 91
e 42 51
e 42 61
e 42 69
e 42 87
e 42 91
e 43 53
e 43 63
e 43 71
e 43 81
e 43 82
e 43 83
e 43 84
e 43 88
e 43 98
e 44 48
e 44 70
e 44 71
e 44 78
e 44 79
e 44 83
e 44 86
e 44 88
e 44 89
e 44 97
e 44 99
e 45 46
e 45 52
e 45 53
e 45 62
e 45 63
e 45 68
e 45 69
e 45 83
e 45 85
e 45 87
e 45 88
e 45 99
e 46 47
e 46 49
e 46 59
e 46 61
e 46 68
e 46 70
e 46 82
e 46 85
e 46 89
e 46 90
e 46 92
e 46 95
e 46 96
e 47 56
e 47 61
e 47 64
e 47 67
e 47 70
e 47 72
e 47 87
e 47 90
e 47 96
e 47 98
e 47 99
e 48 51
e 48 52
e 48 53
e 48 55
e 48 58
e 48 72
e 48 73
e 48 74
e 48 88
e 48 89
e 48 91
e 48 93
e 48 95
e 48 96
e 48 97
e 49 52
e 49 55
e 49 60
e 49 63
e 49 83
e 49 91
e 49 93
e 49 95
e 49 98
e 50 53
e 50 62
e 50 65
e 50 85
e 50 94
e 50 96
e 51 54
e 51 61
e 51 70
e 51 71
e 51 76
e 51 81
e 51 83
e 51 90
e 51 97
e 51 99
e 52 67
e 52 81
e 52 83
e 52 85
e 52 94
e 52 99
e 53 63
e 53 72
e 53 74
e 53 84
e 53 85
e 53 87
e 53 99
e 54 65
e 54 67
e 54 73
e 54 83
e 54 88
e 54 100
e 55 57
e 55 68
e 55 69
e 55 72
e 55 84
e 55 85
e 55 87
e 55 88
e 55 99
e 56 69
e 56 88
e 56 98
e 56 100
e 57 62
e 57 70
e 57 72
e 57 86
e 57 89
e 57 91
e 57 92
e 57 98
e 58 63
e 58 65
e 58 74
e 58 83
e 58 85
e 58 87
e 58 91
e 59 60
e 59 78
e 59 79
e 59 80
e 59 83
e 59 89
e 59 93
e 60 66
e 60 67
e 60 70
e 60 84
e 60 87
e 60 88
e 60 91
e 60 92
e 60 95
e 60 98
e 61 63
e 61 65
e 61 75
e 61 76
e 61 83
e 61 84
e 61 89
e 61 93
e 62 80
e 62 83
e 62 84
e 62 89
e 62 90
e 62 95
e 62 97
e 62 98
e 62 99
e 62 100
e 63 64
e 63 71
e 63 78
e 63 86
e 63 88
e 63 95
e 63 96
e 64 83
e 64 89
e 64 95
e 64 97
e 64 99
e 64 100
e 65 68
e 65 70
e 65 81
e 65 94
e 65 95
e 65 97
e 65 98
e 65 100
e 66 74
e 66 80
e 66 86
e 66 88
e 66 89
e 66 90
e 66 92
e 66 93
e 66 96
e 66 97
e 66 99
e 67 71
e 67 76
e 67 77
e 67 88
e 67 91
e 67 93
e 67 99
e 68 70
e 68 72
e 68 77
e 69 78
e 69 84
e 69 96
e 69 98
e 69 99
e 70 71
e 70 74
e 70 80
e 70 94
e 70 99
e 71 75
e 71 76
e 71 78
e 71 97
e 71 98
e 72 76
e 72 78
e 72 88
e 72 93
e 72 96
e 72 98
e 72 99
e 73 78
e 73 79
e 73 90
e 74 79
e 74 88
e 74 96
e 74 98
e 75 76
e 75 90
e 75 95
e 76 80
e 76 91
e 76 93
e 76 94
e 76 95
e 76 98
e 77 86
e 77 95
e 77 97
e 77 98
e 78 97
e 78 98
e 79 99
e 81 83
e 81 96
e 81 97
e 82 94
e 83 96
e 83 97
e 83 98
e 84 88
e 84 93
e 85 92
e 85 94
e 85 95
e 86 87
e 86 89
e 86 91
e 86 99
e 86 100
e 87 92
e 87 99
e 87 100
e 88 98
e 89 91
e 89 93
e 90 91
e 90 92
e 90 97
e 91 95
e 92 93
e 92 98
e 93 95
e 94 95
e 95 96
